10
15 16
10 1 5 4 10 5 8 7 5 2 5 7 6 2 6 
1 9 13
1 12 14
0 7 14 1
0 3 6 5
2 4 13
2 2 5
1 3 5
2 2 15
1 1 7
2 13 14
0 2 8 5
1 1 11
1 8 15
1 4 15
1 11 12
1 9 12
17 15
5 9 1 2 5 2 3 3 2 3 9 9 7 4 9 10 5 
1 16 17
0 17 17 4
1 9 16
0 5 15 9
0 17 17 1
0 12 14 5
2 14 16
0 15 16 4
1 16 16
0 15 17 7
0 14 14 1
2 16 17
1 6 9
0 8 16 6
1 3 7
13 20
5 9 8 4 8 4 1 9 7 2 9 8 2 
2 10 13
0 12 12 7
2 2 2
0 3 9 10
0 10 12 10
1 2 4
1 5 6
2 12 13
1 4 12
2 6 8
0 11 12 8
2 1 6
0 5 5 4
2 6 12
0 7 10 1
0 1 12 2
1 2 12
1 4 13
1 12 12
0 13 13 5
20 18
2 2 7 6 10 2 9 3 1 9 7 4 10 10 2 3 9 7 3 5 
0 8 20 1
0 8 20 3
1 14 18
2 4 9
1 14 16
0 19 20 1
1 13 20
2 10 19
0 18 19 1
1 14 19
1 3 9
2 4 16
0 20 20 1
1 15 20
0 7 9 10
1 16 20
0 2 4 9
1 12 16
12 16
8 6 7 3 2 7 3 6 7 2 6 10 
0 2 2 5
2 9 10
2 7 12
0 10 11 7
1 3 12
0 4 6 1
0 1 2 2
1 5 11
2 8 10
1 12 12
0 9 9 5
1 7 10
0 3 5 10
2 1 9
2 7 8
0 3 12 6
17 10
2 4 4 1 10 3 3 7 7 9 9 1 6 9 10 7 10 
0 8 14 4
0 1 12 4
2 6 17
2 9 10
2 2 2
1 5 13
2 5 15
0 14 17 4
1 3 10
0 8 16 1
12 12
10 9 10 1 8 9 8 8 5 10 3 4 
0 8 11 9
1 4 11
2 5 6
2 9 10
2 9 12
0 4 10 4
2 12 12
2 8 11
2 5 12
2 5 7
0 10 10 2
2 11 11
19 10
1 8 5 4 10 8 5 9 5 1 4 7 2 5 3 9 6 1 10 
0 1 19 3
2 4 12
0 1 15 8
1 3 18
2 4 18
2 19 19
1 1 7
0 13 16 8
2 1 13
0 12 12 1
17 18
2 5 1 10 4 6 1 10 8 6 2 9 6 3 6 4 9 
1 17 17
1 14 14
0 13 17 10
2 5 17
1 5 16
2 7 8
2 4 13
1 9 12
2 1 14
2 8 15
2 13 17
0 7 15 9
0 2 2 8
0 1 4 8
1 3 13
1 16 16
0 16 16 9
1 13 16
19 13
5 8 3 1 2 1 8 2 4 10 4 7 8 4 3 4 4 5 3 
2 19 19
2 12 12
1 6 10
1 12 13
1 8 19
1 5 12
0 3 16 9
1 6 13
2 1 16
2 12 16
1 3 17
1 18 18
2 17 19
